50

94 14 218
92 31 440
89 19 210
89 45 455
87 18 436
82 21 329
82 11 355
81 20 356
80 26 548
80 14 563
78 32 288
71 1 290
70 18 206
67 10 507
66 29 283
63 28 316
58 7 401
52 25 488
50 2 558
48 20 343
46 19 418
36 18 558
34 7 536
33 5 511
31 7 580
30 7 283
27 10 454
26 13 510
21 7 442
21 10 343
20 6 355
19 3 214
18 5 566
18 6 319
17 9 552
12 1 402
11 3 215
11 2 471
11 4 469
11 6 290
10 2 513
10 1 263
7 2 536
7 1 307
7 4 294
6 3 363
5 3 538
5 3 232
4 1 235
3 2 591
